true true true
presolving:
presolving (0 rounds: 0 fast, 0 medium, 0 exhaustive):
 0 deleted vars, 0 deleted constraints, 0 added constraints, 0 tightened bounds, 0 added holes, 0 changed sides, 0 changed coefficients
 0 implications, 0 cliques
presolved problem has 57 variables (57 bin, 0 int, 0 impl, 0 cont) and 48 constraints
     48 constraints of type <linear>
transformed objective value is always integral (scale: 1)
Presolving Time: 0.00

 time | node  | left  |LP iter|LP it/n|mem/heur|mdpt |vars |cons |rows |cuts |sepa|confs|strbr|  dualbound   | primalbound  |  gap   | compl. 
p 0.0s|     1 |     0 |     0 |     - |shiftand|   0 |  57 |  48 |  48 |   0 |  0 |   0 |   0 |      --      | 9.000000e+00 |    Inf | unknown
 time | node  | left  |LP iter|LP it/n|mem/heur|mdpt |vars |cons |rows |cuts |sepa|confs|strbr|  dualbound   | primalbound  |  gap   | compl. 
  0.0s|     1 |     0 |    35 |     - |  2173k |   0 | 547 |  48 |  48 |   0 |  0 |   0 |   0 | 1.000000e+00 | 9.000000e+00 | 800.00%| unknown
 time | node  | left  |LP iter|LP it/n|mem/heur|mdpt |vars |cons |rows |cuts |sepa|confs|strbr|  dualbound   | primalbound  |  gap   | compl. 
  0.4s|     1 |     0 |   485 |     - |  5635k |   0 |1690 |  48 |  48 |   0 |  0 |   0 |   0 | 8.000000e+00 | 9.000000e+00 |  12.50%| unknown
 time | node  | left  |LP iter|LP it/n|mem/heur|mdpt |vars |cons |rows |cuts |sepa|confs|strbr|  dualbound   | primalbound  |  gap   | compl. 
  0.6s|     1 |     2 |  1133 |     - |  6129k |   0 |1690 |  48 |  48 |   0 |  1 |   0 |   0 | 8.000000e+00 | 9.000000e+00 |  12.50%| unknown
 time | node  | left  |LP iter|LP it/n|mem/heur|mdpt |vars |cons |rows |cuts |sepa|confs|strbr|  dualbound   | primalbound  |  gap   | compl. 
  0.6s|     2 |     3 |  1139 |   6.0 |  6209k |   1 |1690 |  48 |  48 |   0 |  1 |   0 |   0 | 8.000000e+00 | 9.000000e+00 |  12.50%| unknown
 time | node  | left  |LP iter|LP it/n|mem/heur|mdpt |vars |cons |rows |cuts |sepa|confs|strbr|  dualbound   | primalbound  |  gap   | compl. 
  0.6s|     3 |     4 |  1156 |  11.5 |  6281k |   2 |1690 |  48 |  48 |   0 |  1 |   0 |   0 | 8.000000e+00 | 9.000000e+00 |  12.50%| unknown
 time | node  | left  |LP iter|LP it/n|mem/heur|mdpt |vars |cons |rows |cuts |sepa|confs|strbr|  dualbound   | primalbound  |  gap   | compl. 
  0.6s|     4 |     5 |  1176 |  14.3 |  6289k |   3 |1690 |  48 |  48 |   0 |  1 |   0 |   0 | 8.000000e+00 | 9.000000e+00 |  12.50%| unknown
 time | node  | left  |LP iter|LP it/n|mem/heur|mdpt |vars |cons |rows |cuts |sepa|confs|strbr|  dualbound   | primalbound  |  gap   | compl. 
  0.7s|     5 |     6 |  1184 |  12.8 |  6489k |   3 |1690 |  48 |  48 |   0 |  1 |   0 |   0 | 8.000000e+00 | 9.000000e+00 |  12.50%| unknown
 time | node  | left  |LP iter|LP it/n|mem/heur|mdpt |vars |cons |rows |cuts |sepa|confs|strbr|  dualbound   | primalbound  |  gap   | compl. 
  0.7s|     6 |     7 |  1236 |  20.6 |  6507k |   4 |1690 |  48 |  48 |   0 |  1 |   0 |   0 | 8.000000e+00 | 9.000000e+00 |  12.50%| unknown
 time | node  | left  |LP iter|LP it/n|mem/heur|mdpt |vars |cons |rows |cuts |sepa|confs|strbr|  dualbound   | primalbound  |  gap   | compl. 
  1.1s|     7 |     8 |  1665 |  88.7 |  6745k |   4 |1877 |  48 |  48 |   0 |  1 |   0 |   0 | 8.000000e+00 | 9.000000e+00 |  12.50%| unknown
 time | node  | left  |LP iter|LP it/n|mem/heur|mdpt |vars |cons |rows |cuts |sepa|confs|strbr|  dualbound   | primalbound  |  gap   | compl. 
  1.2s|     8 |     9 |  1769 |  90.9 |  6857k |   4 |1877 |  48 |  48 |   0 |  1 |   0 |   0 | 8.000000e+00 | 9.000000e+00 |  12.50%| unknown
 time | node  | left  |LP iter|LP it/n|mem/heur|mdpt |vars |cons |rows |cuts |sepa|confs|strbr|  dualbound   | primalbound  |  gap   | compl. 
  1.4s|     9 |    10 |  1872 |  92.4 |  8272k |   4 |2045 |  48 |  48 |   0 |  1 |   0 |   0 | 8.000000e+00 | 9.000000e+00 |  12.50%| unknown
 time | node  | left  |LP iter|LP it/n|mem/heur|mdpt |vars |cons |rows |cuts |sepa|confs|strbr|  dualbound   | primalbound  |  gap   | compl. 
  1.8s|    10 |     9 |  1990 |  95.2 |  8948k |   4 |2237 |  48 |  48 |   0 |  0 |   0 |   0 | 8.000000e+00 | 9.000000e+00 |  12.50%| unknown
 time | node  | left  |LP iter|LP it/n|mem/heur|mdpt |vars |cons |rows |cuts |sepa|confs|strbr|  dualbound   | primalbound  |  gap   | compl. 
  1.9s|    11 |    10 |  2006 |  87.3 |  8958k |   4 |2237 |  48 |  48 |   0 |  1 |   0 |   0 | 8.000000e+00 | 9.000000e+00 |  12.50%|   2.29%
 time | node  | left  |LP iter|LP it/n|mem/heur|mdpt |vars |cons |rows |cuts |sepa|confs|strbr|  dualbound   | primalbound  |  gap   | compl. 
  2.0s|    12 |    11 |  2018 |  80.5 |  9007k |   5 |2237 |  48 |  48 |   0 |  1 |   0 |   0 | 8.000000e+00 | 9.000000e+00 |  12.50%|   2.29%
 time | node  | left  |LP iter|LP it/n|mem/heur|mdpt |vars |cons |rows |cuts |sepa|confs|strbr|  dualbound   | primalbound  |  gap   | compl. 
  2.4s|    13 |    10 |  2261 |  94.0 |  9265k |   5 |2351 |  48 |  48 |   0 |  0 |   0 |   0 | 8.000000e+00 | 9.000000e+00 |  12.50%|   2.29%
 time | node  | left  |LP iter|LP it/n|mem/heur|mdpt |vars |cons |rows |cuts |sepa|confs|strbr|  dualbound   | primalbound  |  gap   | compl. 
r 2.7s|    14 |     0 |  2330 |  92.1 |simplero|   6 |2362 |  48 |  48 |   0 |  0 |   0 |   0 | 8.000000e+00 | 8.000000e+00 |   0.00%|  99.43%

SCIP Status        : problem is solved [optimal solution found]
Solving Time (sec) : 2.68
Solving Nodes      : 14
Primal Bound       : +8.00000000000000e+00 (2 solutions)
Dual Bound         : +8.00000000000000e+00
Gap                : 0.00 %
Running with parallel: True bidir: True symbreak: True
Number of Nodes:  48
47.12185329861111% holds
starting cheapest insertion heuristic
Heuristic without TSP improvement:  9
Heuristic without TSP improvement time:  0.1
Heuristic Sol:  9
Heuristic total time:  0.1
[[11, 3, 4, 12, 2, 8], [10, 29, 41, 35, 6], [47, 36, 32, 46, 26, 45], [44, 5, 38, 17, 7, 21, 25], [43, 33], [42, 15, 40, 30, 27], [39, 37, 9, 14, 23, 24, 22, 16, 1], [34, 13, 20], [31, 18, 19, 28, 0]]
Instance path:  /home/htc/mghannam/SCRATCH/lccp-rust/data/at84_ftv47.npcc
Timelimit:  7200
Heuristic without TSP improvement:  9
Heuristic without TSP improvement time:  0.1
Heuristic Sol:  9
Heuristic total time:  0.2
at 1 zero_duals: 39
at1, LP obj: 9.0 n_added_paths: 490
at 1 zero_duals: 26
at1, LP obj: 9.0 n_added_paths: 218
at 1 zero_duals: 9
at1, LP obj: 9.0 n_added_paths: 391
at 1 zero_duals: 8
at1, LP obj: 8.426008968609866 n_added_paths: 376
at 1 zero_duals: 3
at1, LP obj: 8.149350649350652 n_added_paths: 94
at 1 zero_duals: 10
at1, LP obj: 7.9772727272727275 n_added_paths: 9
at 1 zero_duals: 8
at1, LP obj: 7.950819672131147 n_added_paths: 33
at 1 zero_duals: 8
at1, LP obj: 7.944444444444445 n_added_paths: 3
at 1 zero_duals: 9
Switching to elementary pricing
at1, LP obj: 7.944444444444445 n_added_paths: 19
updated lowerbound from 1.0 to 8
Gap too small = 0, stopping pricing with lb = 8
Gap too small = 0, stopping pricing with lb = 8
Gap too small = 0, stopping pricing with lb = 8
Gap too small = 0, stopping pricing with lb = 8
Gap too small = 0, stopping pricing with lb = 8
Gap too small = 0, stopping pricing with lb = 8
at 11 zero_duals: 8
at11, LP obj: 8.268907563025211 n_added_paths: 155
at 11 zero_duals: 8
at11, LP obj: 8.039379474940334 n_added_paths: 23
at 11 zero_duals: 6
at11, LP obj: 8.00485436893204 n_added_paths: 3
at 11 zero_duals: 6
Switching to elementary pricing
at11, LP obj: 8.004854368932039 n_added_paths: 6
Gap too small = 0, stopping pricing with lb = 8
Gap too small = 0, stopping pricing with lb = 8
at 16 zero_duals: 13
Switching to elementary pricing
at16, LP obj: 8.052631578947368 n_added_paths: 168
Gap too small = 0, stopping pricing with lb = 8
at 18 zero_duals: 9
at18, LP obj: 8.122448979591837 n_added_paths: 175
at 18 zero_duals: 8
Switching to elementary pricing
at18, LP obj: 8.07843137254902 n_added_paths: 8
at 18 zero_duals: 7
at18, LP obj: 8.056451612903226 n_added_paths: 4
at 18 zero_duals: 10
Switching to elementary pricing
at18, LP obj: 8.054054054054054 n_added_paths: 5
at 18 zero_duals: 13
Switching to elementary pricing
at18, LP obj: 8.053846153846154 n_added_paths: 0
updated lowerbound from 8.0 to 9
Gap too small = 0, stopping pricing with lb = 8
Gap too small = 0, stopping pricing with lb = 8
at 21 zero_duals: 12
at21, LP obj: 8.357798165137613 n_added_paths: 99
at 21 zero_duals: 9
Switching to elementary pricing
at21, LP obj: 8.120535714285714 n_added_paths: 4
at 21 zero_duals: 11
Switching to elementary pricing
at21, LP obj: 8.107142857142858 n_added_paths: 9
at 21 zero_duals: 11
Switching to elementary pricing
at21, LP obj: 8.096153846153847 n_added_paths: 2
updated lowerbound from 8.0 to 9
at 23 zero_duals: 10
at23, LP obj: 8.076335877862595 n_added_paths: 11
Best solution found:
t_[44, 5, 38, 17, 7, 21, 25, 44] 1.0 1.0
checking cycle [44, 5, 38, 17, 7, 21, 25, 44]
[44, 5, 38, 17, 7, 21, 25, 44] 243 237
t_[39, 37, 9, 14, 23, 24, 22, 16, 1, 39] 1.0 1.0
checking cycle [39, 37, 9, 14, 23, 24, 22, 16, 1, 39]
[39, 37, 9, 14, 23, 24, 22, 16, 1, 39] 272 272
[43, 13, 43] 1.0 1.0
checking cycle [43, 13, 43]
[43, 13, 43] 245 226
[36, 32, 34, 20, 11, 3, 36] 1.0 1.0
checking cycle [36, 32, 34, 20, 11, 3, 36]
[36, 32, 34, 20, 11, 3, 36] 281 265
[41, 35, 26, 10, 33, 6, 29, 41] 1.0 1.0
checking cycle [41, 35, 26, 10, 33, 6, 29, 41]
[41, 35, 26, 10, 33, 6, 29, 41] 256 236
[42, 27, 30, 0, 31, 42] 1.0 1.0
checking cycle [42, 27, 30, 0, 31, 42]
[42, 27, 30, 0, 31, 42] 249 223
[47, 45, 28, 46, 19, 4, 47] 1.0 1.0
checking cycle [47, 45, 28, 46, 19, 4, 47]
[47, 45, 28, 46, 19, 4, 47] 226 226
[40, 15, 18, 12, 2, 8, 40] 1.0 1.0
checking cycle [40, 15, 18, 12, 2, 8, 40]
[40, 15, 18, 12, 2, 8, 40] 270 270
